benchmarks_CP/INST_36x36/20/inst36x36_20_21.dzn
S=6;
start=[|
-1,	-1,	-1,	-1,	-1,	8,	-1,	-1,	-1,	-1,	10,	-1,	-1,	-1,	-1,	-1,	-1,	-1,	7,	-1,	-1,	9,	-1,	-1,	-1,	-1,	-1,	-1,	11,	-1,	-1,	-1,	-1,	16,	-1,	-1|
-1,	-1,	30,	-1,	-1,	-1,	-1,	-1,	-1,	-1,	-1,	-1,	-1,	-1,	-1,	-1,	-1,	-1,	-1,	-1,	-1,	-1,	-1,	23,	-1,	-1,	-1,	-1,	35,	7,	-1,	-1,	-1,	-1,	18,	-1|
-1,	-1,	3,	-1,	-1,	-1,	34,	-1,	-1,	-1,	-1,	-1,	-1,	-1,	30,	-1,	-1,	28,	-1,	-1,	-1,	-1,	-1,	-1,	-1,	-1,	-1,	-1,	-1,	19,	-1,	10,	6,	7,	-1,	-1|
35,	-1,	-1,	-1,	-1,	23,	-1,	-1,	-1,	3,	-1,	-1,	-1,	-1,	11,	-1,	20,	-1,	-1,	-1,	-1,	-1,	-1,	-1,	-1,	-1,	4,	29,	-1,	-1,	-1,	-1,	33,	-1,	-1,	32|
16,	-1,	-1,	-1,	-1,	36,	32,	-1,	23,	-1,	19,	-1,	-1,	29,	-1,	-1,	-1,	6,	33,	-1,	-1,	-1,	-1,	-1,	-1,	-1,	-1,	-1,	-1,	26,	-1,	4,	-1,	-1,	-1,	-1|
-1,	-1,	13,	-1,	20,	-1,	31,	-1,	-1,	-1,	-1,	-1,	-1,	-1,	-1,	-1,	14,	12,	-1,	-1,	-1,	-1,	-1,	32,	28,	-1,	-1,	-1,	-1,	-1,	-1,	-1,	-1,	-1,	-1,	-1|
-1,	-1,	-1,	23,	-1,	-1,	7,	-1,	-1,	-1,	-1,	-1,	-1,	-1,	-1,	-1,	-1,	-1,	-1,	-1,	-1,	-1,	13,	-1,	-1,	-1,	-1,	-1,	26,	32,	10,	-1,	-1,	-1,	-1,	-1|
30,	-1,	-1,	34,	-1,	-1,	-1,	-1,	-1,	-1,	-1,	-1,	-1,	-1,	-1,	-1,	-1,	20,	32,	-1,	-1,	-1,	-1,	-1,	-1,	-1,	5,	18,	3,	-1,	-1,	-1,	-1,	-1,	-1,	-1|
29,	4,	-1,	-1,	-1,	-1,	-1,	-1,	-1,	-1,	-1,	-1,	-1,	-1,	-1,	-1,	-1,	-1,	-1,	36,	-1,	-1,	-1,	-1,	-1,	-1,	16,	-1,	-1,	-1,	-1,	-1,	-1,	-1,	-1,	-1|
22,	-1,	-1,	-1,	3,	-1,	-1,	-1,	-1,	-1,	-1,	-1,	-1,	-1,	-1,	-1,	29,	-1,	-1,	-1,	-1,	-1,	-1,	12,	-1,	-1,	-1,	-1,	-1,	-1,	-1,	-1,	17,	-1,	-1,	-1|
-1,	11,	-1,	-1,	36,	-1,	-1,	19,	-1,	-1,	-1,	21,	-1,	-1,	-1,	-1,	-1,	-1,	30,	-1,	-1,	-1,	-1,	-1,	-1,	-1,	-1,	-1,	-1,	20,	-1,	-1,	-1,	-1,	16,	-1|
20,	2,	-1,	-1,	-1,	-1,	-1,	8,	-1,	24,	-1,	-1,	-1,	-1,	-1,	4,	-1,	-1,	-1,	-1,	-1,	-1,	-1,	35,	-1,	34,	-1,	-1,	-1,	25,	21,	-1,	13,	-1,	-1,	-1|
-1,	-1,	-1,	-1,	18,	-1,	-1,	13,	-1,	-1,	30,	-1,	-1,	-1,	-1,	-1,	-1,	-1,	-1,	-1,	-1,	-1,	-1,	-1,	-1,	-1,	-1,	-1,	-1,	-1,	-1,	-1,	-1,	-1,	-1,	-1|
19,	6,	7,	-1,	-1,	-1,	-1,	-1,	4,	-1,	-1,	-1,	24,	-1,	-1,	-1,	-1,	27,	-1,	-1,	23,	-1,	-1,	25,	14,	-1,	30,	-1,	-1,	-1,	-1,	-1,	-1,	-1,	-1,	-1|
-1,	-1,	-1,	-1,	24,	-1,	-1,	-1,	18,	20,	-1,	7,	32,	-1,	-1,	-1,	-1,	-1,	-1,	-1,	-1,	27,	-1,	33,	-1,	-1,	23,	-1,	-1,	1,	-1,	-1,	-1,	-1,	-1,	-1|
-1,	-1,	-1,	-1,	-1,	-1,	21,	-1,	-1,	16,	-1,	-1,	4,	-1,	14,	-1,	-1,	-1,	-1,	-1,	-1,	6,	-1,	2,	13,	-1,	-1,	-1,	-1,	-1,	5,	-1,	-1,	-1,	-1,	-1|
-1,	-1,	-1,	-1,	1,	21,	-1,	36,	-1,	-1,	-1,	-1,	-1,	-1,	26,	-1,	-1,	5,	-1,	13,	-1,	32,	-1,	14,	33,	-1,	-1,	-1,	-1,	-1,	-1,	-1,	30,	9,	6,	10|
27,	-1,	-1,	-1,	-1,	-1,	-1,	-1,	28,	23,	-1,	-1,	-1,	-1,	13,	19,	-1,	33,	-1,	-1,	-1,	-1,	-1,	-1,	-1,	-1,	-1,	-1,	36,	-1,	18,	-1,	-1,	-1,	-1,	8|
-1,	-1,	-1,	-1,	9,	-1,	-1,	-1,	-1,	-1,	-1,	28,	-1,	-1,	-1,	30,	-1,	-1,	-1,	-1,	-1,	-1,	-1,	-1,	-1,	-1,	-1,	-1,	-1,	-1,	-1,	24,	-1,	-1,	-1,	16|
-1,	8,	15,	-1,	-1,	-1,	-1,	-1,	-1,	-1,	-1,	-1,	-1,	11,	-1,	-1,	-1,	-1,	21,	-1,	-1,	-1,	35,	-1,	-1,	-1,	-1,	-1,	16,	3,	-1,	-1,	-1,	30,	4,	-1|
-1,	-1,	-1,	-1,	-1,	-1,	-1,	-1,	-1,	-1,	-1,	-1,	-1,	26,	-1,	-1,	-1,	-1,	-1,	-1,	-1,	8,	-1,	-1,	-1,	-1,	-1,	-1,	31,	-1,	-1,	-1,	-1,	-1,	-1,	-1|
-1,	-1,	-1,	-1,	-1,	-1,	-1,	-1,	-1,	-1,	15,	-1,	-1,	-1,	-1,	-1,	17,	-1,	-1,	-1,	-1,	34,	-1,	-1,	-1,	-1,	-1,	27,	-1,	4,	8,	-1,	-1,	21,	-1,	-1|
-1,	-1,	-1,	-1,	-1,	12,	-1,	-1,	-1,	-1,	-1,	-1,	19,	-1,	-1,	2,	-1,	-1,	-1,	-1,	-1,	-1,	-1,	27,	-1,	-1,	-1,	30,	-1,	-1,	-1,	29,	36,	-1,	-1,	3|
-1,	25,	-1,	-1,	30,	-1,	-1,	-1,	-1,	-1,	24,	-1,	-1,	-1,	-1,	-1,	-1,	-1,	-1,	1,	-1,	-1,	-1,	-1,	-1,	-1,	-1,	-1,	33,	-1,	-1,	12,	11,	-1,	-1,	31|
-1,	-1,	21,	-1,	19,	-1,	-1,	-1,	-1,	-1,	-1,	-1,	-1,	-1,	-1,	27,	-1,	-1,	-1,	-1,	-1,	-1,	-1,	-1,	-1,	-1,	34,	-1,	-1,	9,	-1,	-1,	23,	12,	-1,	-1|
-1,	-1,	-1,	-1,	-1,	-1,	-1,	-1,	12,	-1,	-1,	23,	1,	9,	-1,	10,	35,	-1,	2,	-1,	-1,	-1,	-1,	-1,	7,	-1,	-1,	-1,	-1,	-1,	-1,	25,	-1,	-1,	-1,	-1|
-1,	18,	12,	-1,	-1,	-1,	-1,	-1,	-1,	-1,	34,	9,	-1,	-1,	-1,	-1,	-1,	-1,	-1,	-1,	16,	7,	-1,	-1,	5,	-1,	8,	-1,	-1,	-1,	-1,	-1,	-1,	-1,	-1,	26|
24,	-1,	-1,	-1,	33,	-1,	-1,	-1,	3,	-1,	-1,	-1,	-1,	-1,	-1,	-1,	19,	-1,	-1,	-1,	-1,	-1,	-1,	-1,	-1,	-1,	-1,	16,	27,	-1,	-1,	-1,	-1,	-1,	-1,	18|
2,	-1,	-1,	-1,	-1,	-1,	22,	-1,	-1,	-1,	-1,	-1,	20,	-1,	34,	-1,	-1,	-1,	-1,	-1,	-1,	-1,	-1,	-1,	-1,	-1,	-1,	-1,	19,	-1,	-1,	-1,	-1,	-1,	-1,	-1|
17,	-1,	-1,	-1,	-1,	-1,	-1,	-1,	-1,	-1,	-1,	-1,	-1,	-1,	-1,	-1,	4,	-1,	-1,	-1,	-1,	15,	-1,	-1,	20,	-1,	-1,	6,	-1,	-1,	-1,	27,	9,	-1,	10,	-1|
-1,	-1,	-1,	1,	17,	-1,	-1,	-1,	-1,	-1,	-1,	-1,	-1,	-1,	-1,	-1,	-1,	-1,	-1,	-1,	-1,	-1,	-1,	-1,	-1,	-1,	-1,	-1,	-1,	-1,	-1,	-1,	-1,	-1,	-1,	-1|
-1,	-1,	-1,	-1,	28,	-1,	-1,	-1,	-1,	17,	-1,	25,	-1,	-1,	-1,	-1,	-1,	-1,	-1,	-1,	-1,	-1,	36,	-1,	-1,	-1,	-1,	-1,	22,	-1,	-1,	-1,	-1,	24,	14,	-1|
-1,	-1,	-1,	-1,	-1,	30,	-1,	-1,	-1,	-1,	-1,	-1,	-1,	-1,	-1,	-1,	-1,	-1,	12,	8,	27,	24,	-1,	-1,	-1,	2,	-1,	17,	-1,	-1,	1,	16,	-1,	6,	-1,	-1|
-1,	-1,	-1,	-1,	-1,	-1,	30,	-1,	-1,	-1,	-1,	3,	-1,	-1,	33,	12,	31,	-1,	-1,	-1,	-1,	-1,	-1,	-1,	-1,	-1,	-1,	-1,	-1,	-1,	29,	18,	-1,	-1,	-1,	-1|
-1,	-1,	-1,	-1,	-1,	-1,	-1,	22,	-1,	34,	-1,	31,	-1,	-1,	-1,	-1,	-1,	35,	5,	-1,	-1,	-1,	-1,	-1,	-1,	6,	-1,	-1,	-1,	-1,	-1,	-1,	-1,	25,	-1,	-1|
-1,	-1,	-1,	-1,	-1,	-1,	-1,	-1,	-1,	-1,	12,	-1,	18,	-1,	-1,	-1,	-1,	-1,	-1,	-1,	4,	-1,	1,	-1,	-1,	-1,	-1,	-1,	-1,	-1,	-1,	-1,	-1,	-1,	13,	-1|];
